Geographic Exponential Decay
40 226 137 186 300 135 243 205 237 43 79 70 19 9 192 276 196 146 66 267 29 248 233 57 100 46 179 87 111 133 93 142 168 285 38 266 234 265 291 166 246
p edge 320 326
e 0 179 31.0
e 1 221 6.0
e 1 0 6.0
e 2 313 1.0
e 2 1 4.0
e 3 294 1.0
e 3 2 4.0
e 4 87 78.0
e 4 3 2.0
e 5 289 1.0
e 5 4 1.0
e 6 197 1.0
e 6 5 1.0
e 7 147 1.0
e 7 6 2.0
e 8 221 1.0
e 9 242 85.0
e 9 15 65.0
e 9 150 7.0
e 9 216 25.0
e 9 75 9.0
e 9 7 49.0
e 10 245 3.0
e 10 9 15.0
e 11 146 55.0
e 11 10 10.0
e 12 181 1.0
e 12 11 3.0
e 13 14 1.0
e 13 12 9.0
e 16 235 16.0
e 16 13 5.0
e 17 76 1.0
e 17 16 1.0
e 18 273 12.0
e 18 17 11.0
e 19 20 42.0
e 19 288 32.0
e 19 234 37.0
e 19 21 24.0
e 19 251 44.0
e 22 155 5.0
e 22 18 4.0
e 23 24 3.0
e 23 22 1.0
e 25 166 83.0
e 25 23 9.0
e 26 80 4.0
e 26 25 5.0
e 27 191 9.0
e 27 26 3.0
e 28 37 4.0
e 28 27 6.0
e 29 50 67.0
e 29 35 55.0
e 29 62 2.0
e 29 74 10.0
e 29 30 80.0
e 29 28 57.0
e 31 241 1.0
e 31 29 72.0
e 32 157 8.0
e 32 31 1.0
e 33 180 11.0
e 33 32 2.0
e 34 285 4.0
e 34 33 12.0
e 36 38 68.0
e 36 34 2.0
e 38 122 99.0
e 38 39 71.0
e 38 314 27.0
e 38 271 15.0
e 40 112 9.0
e 40 36 6.0
e 41 49 1.0
e 41 40 9.0
e 42 135 41.0
e 43 206 26.0
e 43 92 20.0
e 43 269 1.0
e 43 303 85.0
e 43 296 23.0
e 43 41 45.0
e 44 178 1.0
e 44 43 75.0
e 45 274 5.0
e 45 44 2.0
e 46 188 17.0
e 46 137 40.0
e 46 91 61.0
e 46 220 9.0
e 46 297 62.0
e 47 48 3.0
e 47 45 1.0
e 51 52 5.0
e 51 47 3.0
e 53 234 70.0
e 54 250 9.0
e 54 51 2.0
e 55 272 3.0
e 55 54 1.0
e 56 85 1.0
e 56 55 1.0
e 57 81 14.0
e 57 113 93.0
e 57 261 65.0
e 57 243 75.0
e 57 268 100.0
e 58 141 6.0
e 58 56 2.0
e 59 198 7.0
e 59 144 17.0
e 59 58 3.0
e 60 61 5.0
e 60 59 18.0
e 63 64 5.0
e 63 60 5.0
e 65 109 3.0
e 65 63 1.0
e 66 67 11.0
e 66 68 69.0
e 66 306 27.0
e 66 225 27.0
e 66 179 46.0
e 69 142 65.0
e 70 298 2.0
e 70 162 80.0
e 70 123 18.0
e 70 222 95.0
e 70 249 72.0
e 70 65 79.0
e 71 300 61.0
e 71 70 11.0
e 72 135 24.0
e 73 278 4.0
e 73 71 2.0
e 77 78 6.0
e 77 73 10.0
e 79 192 42.0
e 79 82 89.0
e 79 290 8.0
e 79 118 33.0
e 79 174 19.0
e 79 77 34.0
e 83 223 1.0
e 83 79 43.0
e 84 286 4.0
e 84 83 5.0
e 86 87 57.0
e 87 88 41.0
e 87 163 29.0
e 87 89 39.0
e 89 185 12.0
e 90 236 1.0
e 90 84 3.0
e 93 94 11.0
e 93 233 29.0
e 93 253 55.0
e 93 247 27.0
e 93 175 20.0
e 95 145 5.0
e 95 90 1.0
e 96 238 4.0
e 96 95 1.0
e 97 98 4.0
e 97 96 1.0
e 99 177 3.0
e 99 97 6.0
e 100 101 19.0
e 100 148 71.0
e 100 102 83.0
e 100 119 6.0
e 100 224 46.0
e 100 99 24.0
e 103 104 4.0
e 103 100 27.0
e 105 291 54.0
e 106 114 5.0
e 106 103 3.0
e 107 156 6.0
e 107 106 2.0
e 108 110 2.0
e 108 107 1.0
e 111 291 9.0
e 111 115 50.0
e 111 125 67.0
e 111 262 90.0
e 111 312 89.0
e 116 117 4.0
e 116 108 6.0
e 120 291 98.0
e 121 124 14.0
e 121 116 1.0
e 124 126 7.0
e 127 128 3.0
e 127 121 1.0
e 129 208 1.0
e 129 127 2.0
e 130 182 4.0
e 131 142 19.0
e 132 133 60.0
e 133 248 86.0
e 133 217 14.0
e 133 246 82.0
e 133 134 25.0
e 135 179 99.0
e 135 136 6.0
e 135 142 25.0
e 137 252 88.0
e 137 243 16.0
e 137 138 80.0
e 137 139 57.0
e 140 142 63.0
e 142 143 21.0
e 146 149 47.0
e 146 213 8.0
e 146 299 25.0
e 146 173 1.0
e 151 270 5.0
e 151 129 1.0
e 152 153 4.0
e 152 151 3.0
e 154 243 25.0
e 158 159 4.0
e 158 152 8.0
e 160 161 1.0
e 160 164 7.0
e 160 158 11.0
e 165 166 72.0
e 166 167 89.0
e 166 168 18.0
e 166 169 25.0
e 168 170 10.0
e 168 279 75.0
e 168 171 18.0
e 168 172 24.0
e 176 179 18.0
e 176 193 12.0
e 176 182 38.0
e 179 183 55.0
e 184 186 56.0
e 186 187 94.0
e 186 195 80.0
e 186 188 12.0
e 186 275 32.0
e 189 190 2.0
e 189 160 17.0
e 192 194 96.0
e 192 196 93.0
e 192 209 29.0
e 192 199 33.0
e 194 281 20.0
e 196 276 59.0
e 196 200 81.0
e 196 201 82.0
e 196 202 22.0
e 202 203 12.0
e 202 204 33.0
e 205 207 60.0
e 205 210 100.0
e 205 237 33.0
e 205 211 5.0
e 205 212 56.0
e 214 215 2.0
e 214 189 1.0
e 218 302 2.0
e 218 214 1.0
e 219 226 56.0
e 219 218 1.0
e 226 263 24.0
e 226 227 34.0
e 226 228 52.0
e 226 229 85.0
e 230 284 2.0
e 230 219 4.0
e 231 232 4.0
e 231 230 3.0
e 233 234 83.0
e 233 235 44.0
e 233 237 69.0
e 233 239 68.0
e 234 315 33.0
e 234 237 84.0
e 237 248 95.0
e 237 240 64.0
e 243 244 9.0
e 243 246 78.0
e 246 264 49.0
e 246 304 97.0
e 246 248 47.0
e 248 253 68.0
e 248 254 17.0
e 255 256 10.0
e 255 231 12.0
e 257 258 2.0
e 257 255 3.0
e 259 260 2.0
e 259 257 1.0
e 265 316 50.0
e 265 266 31.0
e 265 267 7.0
e 265 276 70.0
e 265 277 15.0
e 266 267 35.0
e 266 276 78.0
e 266 317 44.0
e 266 280 54.0
e 267 276 49.0
e 267 280 14.0
e 267 282 36.0
e 276 283 78.0
e 285 287 81.0
e 285 291 97.0
e 285 292 57.0
e 285 293 21.0
e 291 295 87.0
e 300 301 4.0
e 300 305 2.0
e 300 307 81.0
e 300 308 52.0
e 309 310 23.0
e 309 311 12.0
e 309 259 2.0
e 312 318 25.0
e 319 309 5.0
